letting initialStacks = [30, 37, 10, 27, 5, 45, 17, 44, 2, 41, 8, 12, 14, 6, 20, 13, 36, 32, 3, 33, 7, 40, 34, 18, 43, 25, 50, 11, 38, 22, 26, 23, 35, 4, 15, 9, 21, 19, 29, 16, 48, 49, 31, 46, 28, 47, 42, 39, 24, 1, 51]
